000 000 000 000 -99 -99 -99 -99 -99 -99 -99 -99 000 000 000 -99 -99 -99 000 000 -99 000 -99 000 000 000 000 -99 000 000 000
000 -99 000 000 000 000 -99 000 -99 -99 -99 -99 -99 000 000 -99 -99 -99 -99 -99 -99 -99 -99 -99 -99 000 000 -99 000 000 000
000 000 000 000 000 000 000 000 000 -99 -99 -99 -99 000 000 000 -99 -99 -99 -99 -99 -99 -99 -99 -99 000 000 000 000 000 -99
000 000 000 000 000 000 000 000 000 000 -99 -99 -99 -99 000 000 -99 -99 -99 -99 -99 -99 -99 -99 000 000 000 000 000 000 -99
000 000 000 000 000 000 000 000 000 000 -99 -99 -99 -99 -99 000 000 -99 -99 -99 000 000 -99 000 000 000 000 -99 -99 -99 -99
000 000 000 000 000 000 000 000 000 000 -99 -99 -99 -99 -99 000 000 -99 -99 -99 000 000 000 000 000 000 -99 -99 -99 -99 -99
000 000 000 000 000 000 000 000 -99 -99 -99 -99 -99 -99 000 000 000 000 -99 -99 000 000 000 000 000 000 -99 -99 -99 -99 -99
000 000 000 000 000 000 000 -99 000 -99 -99 -99 -99 -99 -99 000 000 000 -99 -99 000 000 000 000 000 000 -99 -99 -99 -99 000
000 000 000 000 000 000 000 000 000 000 -99 -99 -99 -99 -99 -99 000 000 000 000 000 000 000 000 000 000 -99 -99 000 000 000
000 000 000 000 000 000 000 000 000 000 000 000 -99 -99 -99 -99 000 000 000 000 000 000 000 -99 000 -99 -99 -99 000 000 -99
000 000 000 000 000 000 000 000 000 000 000 000 000 000 -99 000 000 000 000 000 000 000 -99 000 000 -99 -99 -99 000 000 000
000 000 001 001 000 000 000 000 000 000 000 000 000 000 000 000 000 001 002 001 000 000 -99 000 000 -99 -99 000 000 000 000
000 000 000 003 000 000 000 000 000 000 000 002 004 000 001 000 000 002 006 002 000 000 -99 000 000 000 000 -99 000 000 000
000 000 001 002 000 000 000 000 000 000 000 000 003 004 009 001 000 001 009 003 000 000 000 000 000 000 000 -99 000 000 000
000 000 002 003 001 000 000 003 002 000 000 000 004 030 021 001 000 001 001 002 000 000 000 000 000 000 000 000 000 000 000
000 001 004 003 001 000 002 008 005 002 000 001 004 031 014 000 000 001 004 008 000 000 000 001 000 000 000 000 000 000 -99
001 003 006 005 001 001 002 014 005 004 002 006 013 016 005 000 000 001 003 002 001 000 000 002 002 000 000 000 000 000 000
000 004 011 005 001 000 002 002 005 005 004 019 022 011 002 001 000 000 002 001 000 000 000 004 003 000 000 000 000 000 000
000 010 014 004 002 001 006 004 003 004 008 023 016 010 003 001 000 000 001 000 000 000 000 007 006 000 001 000 000 000 000
001 012 015 009 005 003 007 010 006 006 009 018 012 010 005 001 000 000 000 000 000 000 000 007 006 000 001 000 000 001 005
001 006 010 008 006 004 010 016 012 007 007 009 017 012 001 002 001 000 000 000 000 000 000 000 001 003 003 002 002 004 017
003 007 009 007 006 010 015 014 017 008 006 011 021 013 002 003 003 001 000 000 000 000 000 000 001 008 010 005 034 044 034
006 008 007 005 006 014 017 010 017 006 007 020 022 015 006 005 007 001 000 000 000 000 000 000 001 011 018 017 061 072 051
013 010 006 006 005 008 010 011 012 010 018 031 022 021 010 007 007 001 001 000 000 000 000 001 004 017 051 080 109 118 075
012 015 006 005 004 004 010 017 010 015 014 017 015 022 013 012 005 001 001 000 000 000 001 002 007 019 075 109 187 220 140
008 018 013 008 006 011 018 014 018 011 006 009 007 018 014 012 005 002 002 001 000 001 002 003 008 029 039 089 165 283 158
004 016 018 013 013 025 033 016 013 006 003 006 004 007 011 007 005 003 002 001 002 002 004 005 005 012 031 051 111 175 121
004 014 013 020 015 025 024 012 008 004 005 005 006 011 008 006 004 001 002 002 003 004 007 007 007 008 013 054 092 087 056
001 003 006 011 011 014 029 022 006 002 005 003 006 008 005 003 002 001 002 002 005 007 006 011 008 004 017 034 060 052 029
001 002 003 004 007 007 013 011 004 001 002 002 004 007 005 004 002 001 003 003 005 011 015 015 008 005 010 024 028 035 027
000 002 003 007 006 005 007 003 002 001 001 003 005 003 004 004 003 003 004 008 006 015 012 013 009 005 005 017 020 033 037
001 001 002 007 005 007 004 003 003 002 002 004 005 002 005 002 004 004 011 007 006 009 016 015 010 004 003 008 016 013 018
001 001 004 006 004 003 005 005 004 005 003 003 005 005 004 003 006 003 011 016 007 006 015 015 007 005 003 013 019 014 013
001 001 003 005 002 001 004 003 004 005 003 003 004 006 007 006 006 003 006 013 007 007 010 009 006 006 004 011 018 010 007
001 001 002 001 001 001 000 000 002 004 004 003 003 007 008 004 003 004 006 005 005 003 004 005 004 003 005 012 010 008 004
000 000 002 001 000 000 000 000 000 001 001 002 003 008 009 010 003 003 003 001 001 001 002 003 001 003 006 007 004 003 004
000 000 000 000 000 000 000 000 000 000 000 000 002 003 002 004 001 002 001 000 000 000 001 002 001 001 002 003 002 002 002
000 000 000 000 000 000 000 000 000 000 000 000 000 000 000 000 000 001 001 001 000 000 000 000 000 001 001 002 000 000 001
000 000 000 000 000 000 000 000 000 000 000 000 000 000 000 000 000 000 001 002 000 000 000 000 000 000 000 000 000 000 001
000 000 000 000 000 000 000 000 000 000 000 000 000 000 000 000 000 000 000 000 000 000 000 000 000 000 000 000 000 000 001
000 000 000 000 000 000 000 000 000 000 000 000 000 000 000 000 000 000 000 000 000 000 001 000 000 000 000 000 000 000 001
000 000 -99 000 000 000 000 000 000 000 000 000 000 000 000 000 000 000 000 000 000 000 000 000 001 000 000 000 000 000 000
000 -99 -99 -99 000 000 000 000 000 000 000 000 000 000 000 000 000 000 000 000 000 001 001 000 001 001 000 000 000 000 000
-99 -99 -99 000 -99 000 000 000 000 000 000 000 000 000 000 000 000 000 000 000 000 001 001 000 002 001 000 000 000 000 000
-99 -99 -99 -99 000 000 000 000 000 000 000 000 000 000 000 000 000 000 001 001 001 000 000 001 001 000 000 000 000 -99 000
000 -99 -99 000 000 000 000 000 000 000 000 000 000 000 000 000 000 000 002 002 002 002 001 001 000 000 000 000 -99 -99 000
000 -99 000 000 000 000 000 000 000 000 000 000 000 000 000 000 000 000 003 002 001 001 001 000 000 000 000 000 -99 -99 -99
-99 -99 000 000 000 000 000 000 -99 -99 -99 -99 000 000 000 000 000 002 001 001 002 001 001 000 000 000 001 001 000 -99 -99
-99 -99 -99 000 000 000 000 000 -99 -99 -99 -99 000 000 000 000 001 001 001 000 001 001 002 000 000 000 000 000 000 -99 -99
-99 -99 -99 -99 -99 000 000 -99 -99 000 -99 -99 000 000 000 000 001 000 000 000 001 001 000 000 000 000 000 000 -99 -99 -99
-99 -99 -99 -99 -99 -99 -99 -99 000 000 -99 -99 000 000 000 000 000 000 000 000 001 000 000 000 -99 000 000 000 -99 -99 -99
-99 -99 -99 -99 -99 -99 -99 -99 -99 -99 -99 -99 000 000 000 000 000 000 000 000 000 000 000 -99 000 000 000 000 -99 -99 -99
-99 -99 -99 -99 -99 -99 -99 -99 -99 -99 -99 -99 -99 000 000 000 000 000 000 000 -99 -99 -99 -99 000 000 000 -99 -99 -99 -99
-99 -99 -99 -99 -99 -99 -99 -99 -99 -99 -99 -99 -99 -99 000 000 000 000 -99 -99 -99 -99 -99 -99 000 000 000 -99 -99 -99 -99
-99 -99 -99 -99 -99 -99 -99 -99 -99 -99 -99 -99 -99 -99 -99 000 000 -99 -99 -99 -99 -99 -99 -99 -99 -99 -99 -99 -99 -99 -99
